NAME : kroB100-R-5-3-a.26069.tour
COMMENT : Length = 26069
COMMENT : Found by LKH-3 [Keld Helsgaun] Tue Jul 30 13:14:56 2024
TYPE : TOUR
DIMENSION : 100
TOUR_SECTION
1
95
11
93
85
73
53
70
40
30
75
79
80
20
38
49
86
21
71
27
61
35
94
57
34
7
84
60
74
66
87
83
14
42
82
51
48
31
63
13
78
17
36
96
92
19
44
41
45
18
24
77
16
2
64
33
15
6
4
89
43
50
55
22
23
88
54
52
58
72
37
65
47
81
56
100
26
69
62
5
67
39
68
10
3
28
91
97
99
8
29
76
59
32
98
12
9
25
46
90
-1
EOF
